(declare-fun temp270_1 () (_ BitVec 64))
(declare-fun ARGNAME_use_input_stats_NAMEEND () (_ BitVec 64))
(declare-fun temp270_2 () (_ BitVec 64))
(declare-fun var985537 () (_ BitVec 64))
(declare-fun var985545 () (_ BitVec 64))
(declare-fun temp270_3 () (_ BitVec 64))
(declare-fun temp270_4 () (_ BitVec 64))
(declare-fun ARGNAME_input_NAMEEND_DIMSIZE
             ()
             (Array (_ BitVec 64) (_ BitVec 64)))
(declare-fun temp270_5 () (_ BitVec 64))
(declare-fun temp270_6 () (_ BitVec 64))
(declare-fun temp270_7 () (_ BitVec 64))
(declare-fun temp270_8 () (_ BitVec 64))
(declare-fun temp270_9 () (_ BitVec 64))
(declare-fun temp270_10 () (_ BitVec 64))
(declare-fun temp270_11 () (_ BitVec 64))
(declare-fun temp270_12 () (_ BitVec 64))
(declare-fun temp270_13 () (_ BitVec 64))
(declare-fun temp270_14 () (_ BitVec 64))
(declare-fun temp270_15 () (_ BitVec 64))
(declare-fun temp270_16 () (_ BitVec 64))
(declare-fun temp270_17 () (_ BitVec 64))
(declare-fun temp270_18 () (_ BitVec 64))
(declare-fun temp270_19 () (_ BitVec 64))
(declare-fun temp270_20 () (_ BitVec 64))
(declare-fun temp270_21 () (_ BitVec 64))
(declare-fun temp270_22 () (_ BitVec 64))
(declare-fun temp270_23 () (_ BitVec 64))
(declare-fun ARGNAME_input_NAMEEND_DIM () (_ BitVec 64))
(declare-fun temp270_24 () (_ BitVec 64))
(declare-fun temp270_25 () (_ BitVec 64))
(declare-fun temp270_26 () (_ BitVec 64))
(declare-fun temp270_27 () (_ BitVec 64))
(declare-fun temp270_28 () (_ BitVec 64))
(declare-fun var2039185 () (_ BitVec 64))
(declare-fun temp270_29 () (_ BitVec 64))
(declare-fun var2235793 () (_ BitVec 64))
(declare-fun temp270_30 () (_ BitVec 64))
(declare-fun temp270_31 () (_ BitVec 64))
(declare-fun temp270_32 () (_ BitVec 64))
(declare-fun temp270_33 () (_ BitVec 64))
(declare-fun temp270_34 () (_ BitVec 64))
(declare-fun var2753483 () (_ BitVec 64))
(declare-fun temp270_36 () (_ BitVec 64))
(declare-fun temp270_35 () (_ BitVec 64))
(declare-fun temp270_38 () (_ BitVec 64))
(declare-fun temp270_37 () (_ BitVec 64))
(declare-fun temp270_39 () (_ BitVec 64))
(declare-fun temp270_40 () (_ BitVec 64))
(declare-fun temp270_42 () (_ BitVec 64))
(declare-fun temp270_41 () (_ BitVec 64))
(declare-fun temp270_44 () (_ BitVec 64))
(declare-fun temp270_43 () (_ BitVec 64))
(declare-fun temp270_45 () (_ BitVec 64))
(declare-fun temp270_46 () (_ BitVec 64))
(declare-fun temp270_48 () (_ BitVec 64))
(declare-fun temp270_47 () (_ BitVec 64))
(declare-fun temp270_50 () (_ BitVec 64))
(declare-fun temp270_49 () (_ BitVec 64))
(declare-fun temp270_51 () (_ BitVec 64))
(declare-fun var7539137 () (_ BitVec 64))
(declare-fun var7539145 () (_ BitVec 64))
(assert (= temp270_1 #x0000000000000001))
(assert (= ARGNAME_use_input_stats_NAMEEND temp270_1))
(assert (= temp270_2 #x0000000000000002))
(assert (= var985537 temp270_2))
(assert (= var985545 var985537))
(assert (= temp270_3 #x0000000000000000))
(assert (= temp270_4 temp270_3))
(assert (= temp270_5 (select ARGNAME_input_NAMEEND_DIMSIZE temp270_4)))
(assert (= temp270_6 #x0000000000000001))
(assert (= temp270_7 temp270_6))
(assert (= temp270_8 (select ARGNAME_input_NAMEEND_DIMSIZE temp270_7)))
(assert (= temp270_9 #x0000000000000002))
(assert (= temp270_10 temp270_9))
(assert (= temp270_11 (select ARGNAME_input_NAMEEND_DIMSIZE temp270_10)))
(assert (= temp270_12 #x0000000000000003))
(assert (= temp270_13 temp270_12))
(assert (= temp270_14 (select ARGNAME_input_NAMEEND_DIMSIZE temp270_13)))
(assert (= temp270_15 #x0000000000000004))
(assert (= temp270_16 temp270_15))
(assert (= temp270_17 (select ARGNAME_input_NAMEEND_DIMSIZE temp270_16)))
(assert (= temp270_18 #x0000000000000005))
(assert (= temp270_19 temp270_18))
(assert (= temp270_20 (select ARGNAME_input_NAMEEND_DIMSIZE temp270_19)))
(assert (= temp270_21 #x0000000000000000))
(assert (= temp270_22 temp270_21))
(assert (= temp270_23 (select ARGNAME_input_NAMEEND_DIMSIZE temp270_22)))
(assert (bvsgt ARGNAME_input_NAMEEND_DIM temp270_21))
(assert (bvsge temp270_21 (bvneg ARGNAME_input_NAMEEND_DIM)))
(assert (= temp270_24 #x0000000000000001))
(assert (= temp270_25 temp270_24))
(assert (= temp270_26 (select ARGNAME_input_NAMEEND_DIMSIZE temp270_25)))
(assert (bvsgt ARGNAME_input_NAMEEND_DIM temp270_24))
(assert (bvsge temp270_24 (bvneg ARGNAME_input_NAMEEND_DIM)))
(assert (= temp270_27 temp270_26))
(assert (= temp270_28 #x0000000000000001))
(assert (= var2039185 temp270_28))
(assert (= temp270_29 #x0000000000000000))
(assert (= var2235793 temp270_29))
(assert (= temp270_30 temp270_23))
(assert (= temp270_31 temp270_23))
(assert (= temp270_32 temp270_23))
(assert (= temp270_33 temp270_23))
(assert (= temp270_34 #x0000000000000001))
(assert (= var2753483 temp270_34))
(assert (= temp270_36 #x0000000000000000))
(assert (= temp270_35 temp270_36))
(assert (= temp270_38 #x0000000000000000))
(assert (= temp270_37 temp270_38))
(assert (= temp270_39 temp270_23))
(assert (= temp270_40 temp270_26))
(assert (= temp270_42 #x0000000000000002))
(assert (= temp270_41 temp270_42))
(assert (= temp270_44 #x0000000000000000))
(assert (= temp270_43 temp270_44))
(assert (= temp270_45 temp270_23))
(assert (= temp270_46 temp270_26))
(assert (= temp270_48 #x0000000000000002))
(assert (= temp270_47 temp270_48))
(assert (= temp270_50 #x0000000000000000))
(assert (= temp270_49 temp270_50))
(assert (= temp270_51 #x0000000000000002))
(assert (= var7539137 temp270_51))
(assert (= var7539145 var7539137))
(model-add temp270_1 () (_ BitVec 64) #x0000000000000001)
(model-add ARGNAME_use_input_stats_NAMEEND () (_ BitVec 64) #x0000000000000001)





